NAME: ACTUAL_TOURS/amz2982
TYPE: TOUR
COMMENT: RouteID_e5ab7d07-a9d5-4149-839f-f10df8a7ff10
DIMENSION: 100
TOUR_SECTION
41
21
20
42
1
89
54
22
10
55
79
40
91
3
83
69
32
93
33
45
23
37
12
57
9
31
80
97
85
66
47
78
96
98
43
71
68
58
5
25
35
67
92
49
48
38
27
60
16
24
86
2
87
28
90
81
56
73
77
70
84
30
61
75
19
63
51
100
7
44
76
11
46
34
62
8
15
52
36
88
4
50
17
14
59
65
82
26
99
39
6
94
95
53
74
64
18
13
72
29
-1
EOF
